NAME : a280
COMMENT : Tour length 3285
TYPE : TOUR
DIMENSION : 280
TOUR_SECTION
1
2
242
243
254
253
252
255
256
257
258
259
260
261
262
263
265
264
269
268
267
266
140
147
149
150
178
179
180
181
176
177
151
152
156
153
155
154
129
132
133
17
18
19
20
131
130
21
128
127
126
32
33
34
35
36
37
38
39
40
41
42
43
60
61
118
117
115
114
111
110
108
104
103
102
169
168
167
166
165
164
163
162
161
175
160
159
158
157
119
120
121
122
123
124
125
30
31
29
28
27
26
22
25
23
24
15
14
13
12
11
10
9
8
7
6
5
4
277
276
275
274
273
272
271
16
270
134
135
136
137
138
139
148
141
142
200
144
143
146
145
199
198
197
194
195
196
201
202
203
204
205
206
210
209
208
207
212
211
214
213
217
216
215
218
219
220
221
222
223
224
225
226
227
228
229
230
247
244
241
240
245
231
236
235
234
233
232
237
238
239
246
251
250
249
248
278
279
3
280
193
192
191
190
189
188
187
186
185
184
183
182
174
173
106
107
105
170
171
172
101
100
99
98
97
94
95
96
93
92
91
90
109
89
81
80
79
76
75
77
78
74
73
72
71
70
67
66
65
64
63
62
116
86
85
84
87
113
112
88
83
82
68
69
58
57
44
59
45
46
47
48
53
52
51
50
49
54
55
56
1
-1
EOF